
Gurobi 6.5.2 (win64) logging started 07/22/16 21:44:49


Gurobi 6.5.2 (win64) logging started 07/22/16 21:44:49

Optimize a model with 1550 rows, 627 columns and 4311 nonzeros
Coefficient statistics:
  Matrix range    [6e-08, 1e+03]
  Objective range [1e+00, 1e+00]
  Bounds range    [1e+00, 1e+00]
  RHS range       [6e-06, 2e+03]
Presolve removed 1327 rows and 397 columns
Presolve time: 0.00s
Presolved: 223 rows, 230 columns, 997 nonzeros
Variable types: 230 continuous, 0 integer (0 binary)

Root relaxation: objective 1.851773e+02, 264 iterations, 0.02 seconds

    Nodes    |    Current Node    |     Objective Bounds      |     Work
 Expl Unexpl |  Obj  Depth IntInf | Incumbent    BestBd   Gap | It/Node Time

*    0     0               0     185.1772577  185.17726  0.00%     -    0s

Explored 0 nodes (264 simplex iterations) in 0.02 seconds
Thread count was 8 (of 8 available processors)

Optimal solution found (tolerance 1.00e-04)
Best objective 1.851772576565e+02, best bound 1.851772576565e+02, gap 0.0%

Wrote requested result file 'H1\instance20\\Results20EC_Sol3.lp'

